NAME : pr20.tsp
COMMENT : 20-city problem
TYPE : TSP 
DIMENSION : 20
EDGE_WEIGHT_TYPE : CEIL_2D
NODE_COORD_SECTION 
1  1.641100e+04 1.042100e+04 
2  4.119500e+04 9.799200e+04 
3  4.102200e+04 7.139800e+04 
4  1.646500e+04 5.762000e+04 
5  2.680400e+04 7.587900e+04 
6  1.384200e+04 3.949000e+03 
7  2.728500e+04 5.033000e+03 
8  1.874000e+03 4.331000e+03 
9  7.865200e+04 5.691300e+04 
10 6.612700e+04 6.502500e+04 
11 9.390500e+04 8.815500e+04 
12 7.159500e+04 9.068600e+04 
13 2.479300e+04 8.592700e+04 
14 7.772200e+04 2.574700e+04 
15 5.492300e+04 7.026200e+04 
16 6.467300e+04 2.016300e+04 
17 8.654300e+04 8.377800e+04 
18 3.412900e+04 2.416000e+03 
19 3.480500e+04 6.454000e+03 
20 4.437000e+04 2.751900e+04 
EOF 
